c Reduced graph for p24 generated by Cyril Grelier
p edge 34 104
e 1 2
e 1 4
e 1 5
e 1 10
e 1 11
e 1 12
e 1 17
e 1 19
e 1 27
e 2 3
e 2 4
e 2 5
e 2 6
e 2 10
e 2 11
e 2 13
e 2 16
e 3 6
e 3 7
e 3 8
e 3 9
e 3 13
e 3 16
e 3 18
e 4 5
e 4 7
e 4 10
e 4 11
e 4 20
e 4 25
e 5 8
e 5 10
e 5 11
e 5 14
e 5 21
e 6 13
e 6 14
e 6 15
e 6 16
e 6 23
e 7 8
e 7 9
e 7 18
e 7 20
e 7 25
e 8 9
e 8 14
e 8 18
e 8 21
e 9 15
e 9 18
e 9 24
e 9 29
e 10 11
e 10 23
e 10 30
e 11 18
e 11 31
e 12 17
e 12 19
e 12 27
e 12 30
e 12 31
e 12 33
e 13 16
e 13 20
e 13 21
e 13 22
e 14 15
e 14 21
e 14 23
e 15 23
e 15 24
e 15 29
e 16 24
e 16 34
e 17 19
e 17 25
e 17 26
e 17 27
e 18 31
e 19 27
e 19 28
e 19 29
e 20 21
e 20 22
e 20 25
e 21 22
e 22 26
e 22 28
e 22 32
e 23 30
e 24 29
e 24 34
e 25 26
e 26 28
e 26 32
e 27 32
e 28 29
e 28 32
e 30 31
e 30 33
e 31 33
e 33 34
